param V := 4;
param S := 3;
param r0 := 50;
param M := 1e6;

set SCENARIO_VERTICES :=
1	2
1	3
1	4
2   1
2   2
2   3
3   3
3   4 ;

param:
		s	v	p	:=
1	2   1	2   2
1	3   1	3   1
1	4   1	4   3
2   1   2   1   4
2   2   2   2   1
2   3   2   3   3
3   3   3   3   6
3   4   3   4   2 ;

param theta :=
1   0.2
2   0.5
3   0.3 ;

param x_tilde :=
1   1
2   1
3   1
4   1 ;

param r :=
1   15
2   25
3   35
4   10 ;

